NAME: Tnm136
COMMENT: Imported from tnm log files (not double checked for validity should be 2002445]
TYPE: TOUR
DIMENSION: 136
TOUR_SECTION:
1
108
105
110
102
99
96
93
90
87
84
81
78
75
72
69
66
63
60
57
54
51
48
45
42
39
36
33
30
27
24
21
18
15
12
9
6
3
107
104
109
101
98
95
112
115
92
89
86
83
80
77
74
71
68
65
62
59
56
118
121
124
127
130
133
136
134
131
135
132
129
126
123
120
53
50
47
44
41
38
35
32
29
26
23
20
17
14
11
8
5
2
106
103
111
100
97
94
114
117
91
88
85
82
79
76
73
70
67
64
61
58
55
52
49
46
43
40
37
34
31
28
25
22
19
16
128
125
122
119
116
113
13
10
7
4
-1
EOF
